POSCAR-output-60def
1.0
        8.5859003067         0.0000000000         0.0000000000
        0.0000000000        17.6840991974         0.0000000000
        0.0000000000         0.0000000000        25.5576000214
   Al    C   Cu    H    O
   45    7   44    6   92
Direct
     0.832840033         0.280260007         0.409270003
     0.166669990         0.854809994         0.226109987
    -0.000000000         0.893970012         0.319560003
     0.166729998         0.947249983         0.409089997
     0.166669990         0.442900014         0.039930000
    -0.000000000         0.482190000         0.133020003
     0.166669990         0.521480040         0.226109987
    -0.000000000         0.560289955         0.319470000
     0.167290007         0.613420006         0.408740022
     0.166669990         0.109570000         0.039930000
     0.166669990         0.188140001         0.226109987
    -0.000000000         0.227620004         0.319650006
     0.167160009         0.280260007         0.409270003
     0.500000000         0.776229968         0.039930000
     0.333330010         0.815520008         0.133020003
     0.500000000         0.854809994         0.226109987
     0.333249981         0.893980043         0.319580004
     0.500000000         0.947330013         0.409180000
     0.333330010         0.482190000         0.133020003
     0.166669990         0.776229968         0.039930000
    -0.000000000         0.815520008         0.133020003
     0.500000000         0.442900014         0.039930000
    -0.000000000         0.148859992         0.133020003
     0.662940026         0.229790000         0.319670007
     0.500000000         0.614110019         0.409310004
     0.500000000         0.109570000         0.039930000
     0.333330010         0.148859992         0.133020003
     0.500000000         0.188140001         0.226109987
     0.337060002         0.229790000         0.319670007
     0.500000000         0.283039986         0.406720028
     0.833329983         0.776229968         0.039930000
     0.666670017         0.815520008         0.133020003
     0.833329983         0.854809994         0.226109987
     0.500000000         0.521480040         0.226109987
     0.666749991         0.893980043         0.319580004
     0.833270002         0.947249983         0.409089997
     0.833329983         0.442900014         0.039930000
     0.666670017         0.482190000         0.133020003
     0.833329983         0.521480040         0.226109987
     0.661660003         0.557730031         0.318989983
     0.832710020         0.613420006         0.408740022
     0.833329983         0.109570000         0.039930000
     0.666670017         0.148859992         0.133020003
     0.833329983         0.188140001         0.226109987
     0.338340024         0.557730031         0.318989983
     0.685609992         0.615559990         0.630550012
     0.597219984         0.613029996         0.535949995
     0.579930021         0.591840036         0.591940001
     0.535950029         0.548560000         0.696160011
     0.430539997         0.524859999         0.657729969
     0.663229986         0.593840023         0.682509993
     0.452320007         0.546380000         0.605790026
    -0.000000000         0.688140001         0.226109987
     0.168320001         0.726859965         0.316450009
    -0.000000000         0.771359968         0.415459990
    -0.000000000         0.276229995         0.039930000
     0.166669990         0.315519981         0.133020003
    -0.000000000         0.354809994         0.226109987
     0.170470000         0.394250008         0.316570013
    -0.000000000         0.437799983         0.416029972
     0.333330010         0.942900014         0.039930000
     0.500000000         0.982190054         0.133020003
     0.500000000         0.060920000         0.316480010
     0.332679975         0.105480000         0.416209978
     0.333330010         0.609570007         0.039930000
    -0.000000000         0.942900014         0.039930000
     0.829530014         0.394250008         0.316570013
     0.166669990         0.648859992         0.133020003
     0.333330010         0.021479999         0.226109987
     0.000000000         0.609570007         0.039930000
     0.168050007         0.061749998         0.316900024
     0.666670017         0.942900014         0.039930000
     0.500000000         0.315519981         0.133020003
     0.333330010         0.276229995         0.039930000
    -0.000000000         0.021479999         0.226109987
     0.665620030         0.438560022         0.415329986
    -0.000000000         0.105030001         0.415750000
     0.666670017         0.021479999         0.226109987
     0.833329983         0.982190054         0.133020003
     0.332799991         0.771640018         0.416000008
     0.831949993         0.061749998         0.316900024
     0.666670017         0.609570007         0.039930000
     0.333330010         0.354809994         0.226109987
     0.833329983         0.648859992         0.133020003
     0.831680027         0.726859965         0.316450009
     0.667200009         0.771640018         0.416000008
     0.666670017         0.276229995         0.039930000
     0.833329983         0.315519981         0.133020003
     0.666670017         0.354809994         0.226109987
     0.667330022         0.105480000         0.416209978
     0.500000000         0.727709983         0.316909987
     0.333330010         0.688140001         0.226109987
     0.500000000         0.648859992         0.133020003
     0.166669990         0.982190054         0.133020003
     0.666670017         0.688140001         0.226109987
     0.334379997         0.438560022         0.415329986
     0.784470045         0.650809988         0.619660014
     0.745310019         0.612260007         0.712490045
     0.518820014         0.531679994         0.736819980
     0.331269995         0.489560010         0.668340032
     0.371990007         0.528720029         0.575099987
     0.724170049         0.667509980         0.488969997
     0.667029954         0.337119984         0.431350009
     0.833329983         0.749640001         0.112649999
     0.666670017         0.788929987         0.205740002
     0.833910013         0.495100016         0.299629995
     0.833329983         0.082970002         0.112649999
     0.666670017         0.043690000         0.019560000
     0.666670017         0.710349962         0.019560000
     0.833859974         0.294380013         0.337260010
     0.666670017         0.377020008         0.019560000
     0.833329983         0.214739999         0.153380007
     0.666670017         0.175450000         0.060289999
     0.666239993         0.540070005         0.397150000
     0.666670017         0.455590003         0.205740002
     0.833270002         0.828710020         0.299800001
     0.833329983         0.416310021         0.112649999
     0.500000000         0.416310021         0.112649999
     0.666670017         0.254020008         0.246470010
     0.333330010         0.455590003         0.205740002
     0.833260006         0.960970003         0.337040002
     0.333759980         0.540070005         0.397150000
     0.668489973         0.206889999         0.397560014
     0.332869995         0.669540005         0.432139999
     0.666700008         0.002790000         0.431829989
     0.666670017         0.920689946         0.246470010
     0.833329983         0.881400015         0.153380007
     0.666670017         0.842120005         0.060289999
     0.331510000         0.206889999         0.397560014
     0.500000000         0.495469965         0.299270001
     0.500000000         0.161240000         0.299059994
     0.500000000         0.082970002         0.112649999
     0.333330010         0.043690000         0.019560000
     0.332969990         0.337119984         0.431350009
     0.500000000         0.293570009         0.336629988
     0.333330010         0.254020008         0.246470010
     0.500000000         0.214739999         0.153380007
     0.333330010         0.175450000         0.060289999
     0.333330010         0.122259995         0.205740002
     0.667129977         0.669540005         0.432139999
    -0.000000000         0.206520010         0.396460014
     0.666670017         0.587360046         0.246470010
     0.166669990         0.214739999         0.153380007
    -0.000000000         0.254020008         0.246470010
     0.500000000         0.960690007         0.337160006
     0.500000000         0.548070007         0.153380007
     0.333330010         0.508780021         0.060289999
     0.333220019         0.873399959         0.396380011
     0.500000000         0.828970008         0.299739980
     0.333330010         0.788929987         0.205740002
     0.500000000         0.749640001         0.112649999
     0.333330010         0.710349962         0.019560000
     0.333299992         0.002790000         0.431829989
     0.333330010         0.920689946         0.246470010
     0.166140012         0.294380013         0.337260010
     0.500000000         0.881400015         0.153380007
     0.333330010         0.842120005         0.060289999
     0.725040040         0.657450024         0.526629975
     0.167500007         0.162770002         0.299870022
     0.000000000         0.122259995         0.205740002
     0.166669990         0.082970002         0.112649999
    -0.000000000         0.043690000         0.019560000
     0.000000000         0.335539992         0.432300005
     0.666670017         0.122259995         0.205740002
    -0.000000000         0.842120005         0.060289999
    -0.000000000         0.175450000         0.060289999
     0.832090003         0.626479996         0.336929998
     0.166669990         0.881400015         0.153380007
     0.166739994         0.960970003         0.337040002
     0.833329983         0.548070007         0.153380007
     0.666670017         0.508780021         0.060289999
     0.666779981         0.873399959         0.396380011
     0.333330010         0.377020008         0.019560000
     0.500000000         0.628269986         0.337849992
     0.832499979         0.162770002         0.299870022
     0.333330010         0.587360046         0.246470010
    -0.000000000         0.539449991         0.396580018
     0.166090000         0.495100016         0.299629995
    -0.000000000         0.455590003         0.205740002
     0.166669990         0.416310021         0.112649999
    -0.000000000         0.377020008         0.019560000
     0.000000000         0.669089973         0.431279970
     0.167909997         0.626479996         0.336929998
    -0.000000000         0.587360046         0.246470010
     0.166669990         0.548070007         0.153380007
    -0.000000000         0.508780021         0.060289999
     0.000000000         0.873339991         0.396200005
     0.166729998         0.828710020         0.299800001
    -0.000000000         0.788929987         0.205740002
     0.166669990         0.749640001         0.112649999
    -0.000000000         0.710349962         0.019560000
    -0.000000000         0.002590000         0.431879990
     0.000000000         0.920689946         0.246470010
     0.508759999         0.593819962         0.500839991
