H
0.7844700449999999  0.6508099880000000  0.6196600140000000
0.7453100190000000  0.6122600070000001  0.7124900450000000
0.5188200140000000  0.5316799940000000  0.7368199800000000
0.3312699950000000  0.4895600100000000  0.6683400320000000
0.3719900070000000  0.5287200290000000  0.5750999870000000
0.7241700490000000  0.6675099799999999  0.4889699970000000
C
0.6856099919999999  0.6155599899999999  0.6305500120000000
0.5972199840000000  0.6130299960000000  0.5359499950000000
0.5799300210000000  0.5918400360000000  0.5919400010000000
0.5359500290000000  0.5485600000000000  0.6961600110000000
0.4305399970000000  0.5248599990000000  0.6577299690000000
0.6632299860000000  0.5938400230000001  0.6825099930000000
0.4523200070000000  0.5463800000000000  0.6057900260000000
O
0.7250400400000000  0.6574500240000000  0.5266299750000000
0.5087599990000000  0.5938199620000000  0.5008399910000000
