Al  C Cu  H  O 
 1.0000000000000000
     8.5859003066999993    0.0000000000000000    0.0000000000000000
     0.0000000000000000   17.6840991973999984    0.0000000000000000
     0.0000000000000000    0.0000000000000000   25.5576000213999990
  Al   C  Cu   H   O
  45   7  44   6  92
Selective dynamics
Direct
  0.8328372042865064  0.2802628432131514  0.4092692221324609   T   T   T
  0.1666699900000026  0.8548099940000001  0.2261099870000010   F   F   F
  0.0000000000000000  0.8939718061379391  0.3195617005574081   T   T   T
  0.1667312120789168  0.9472490179559884  0.4090859403245640   T   T   T
  0.1666699900000026  0.4429000140000028  0.0399299999999982   F   F   F
  0.0000000000000000  0.4821900000000028  0.1330200029999986   F   F   F
  0.1666699900000026  0.5214800400000001  0.2261099870000010   F   F   F
  0.0000000000000000  0.5602941476367361  0.3194680813971084   T   T   T
  0.1672906344680685  0.6134171722344552  0.4087452367615563   T   T   T
  0.1666699900000026  0.1095699999999979  0.0399299999999982   F   F   F
  0.1666699900000026  0.1881400010000007  0.2261099870000010   F   F   F
  0.0000000000000000  0.2276166540112430  0.3196543945066055   T   T   T
  0.1671627687134944  0.2802628432131514  0.4092692221324609   T   T   T
  0.5000000000000000  0.7762299680000027  0.0399299999999982   F   F   F
  0.3333300099999974  0.8155200080000000  0.1330200029999986   F   F   F
  0.5000000000000000  0.8548099940000001  0.2261099870000010   F   F   F
  0.3332522085437324  0.8939772308520758  0.3195780701076517   T   T   T
  0.5000000000000000  0.9473309278958987  0.4091793373447252   T   T   T
  0.3333300099999974  0.4821900000000028  0.1330200029999986   F   F   F
  0.1666699900000026  0.7762299680000027  0.0399299999999982   F   F   F
  0.0000000000000000  0.8155200080000000  0.1330200029999986   F   F   F
  0.5000000000000000  0.4429000140000028  0.0399299999999982   F   F   F
  0.0000000000000000  0.1488599919999984  0.1330200029999986   F   F   F
  0.6629434012329143  0.2297868686244208  0.3196704360705961   T   T   T
  0.5000000000000000  0.6141081993014353  0.4093120307799979   T   T   T
  0.5000000000000000  0.1095699999999979  0.0399299999999982   F   F   F
  0.3333300099999974  0.1488599919999984  0.1330200029999986   F   F   F
  0.5000000000000000  0.1881400010000007  0.2261099870000010   F   F   F
  0.3370566257670846  0.2297868686244208  0.3196704360705961   T   T   T
  0.5000000000000000  0.2830433052297543  0.4067219937774421   T   T   T
  0.8333299829999987  0.7762299680000027  0.0399299999999982   F   F   F
  0.6666700170000013  0.8155200080000000  0.1330200029999986   F   F   F
  0.8333299829999987  0.8548099940000001  0.2261099870000010   F   F   F
  0.5000000000000000  0.5214800400000001  0.2261099870000010   F   F   F
  0.6667478184562661  0.8939772308520758  0.3195780701076517   T   T   T
  0.8332687609210847  0.9472490179559884  0.4090859403245640   T   T   T
  0.8333299829999987  0.4429000140000028  0.0399299999999982   F   F   F
  0.6666700170000013  0.4821900000000028  0.1330200029999986   F   F   F
  0.8333299829999987  0.5214800400000001  0.2261099870000010   F   F   F
  0.6616606090615647  0.5577297851830997  0.3189855305267892   T   T   T
  0.8327093385319329  0.6134171722344552  0.4087452367615563   T   T   T
  0.8333299829999987  0.1095699999999979  0.0399299999999982   F   F   F
  0.6666700170000013  0.1488599919999984  0.1330200029999986   F   F   F
  0.8333299829999987  0.1881400010000007  0.2261099870000010   F   F   F
  0.3383394179384340  0.5577297851830997  0.3189855305267892   T   T   T
  0.6856099920000000  0.6155599900000000  0.6305500120000000   T   T   T
  0.5972199840000000  0.6130299960000000  0.5359499950000000   T   T   T
  0.5799300210000000  0.5918400360000000  0.5919400010000000   T   T   T
  0.5359500290000000  0.5485600000000000  0.6961600110000000   T   T   T
  0.4305399970000000  0.5248599990000000  0.6577299690000000   T   T   T
  0.6632299860000000  0.5938400230000000  0.6825099930000000   T   T   T
  0.4523200070000000  0.5463800000000000  0.6057900260000000   T   T   T
  0.0000000000000000  0.6881400010000007  0.2261099870000010   F   F   F
  0.1683215466478362  0.7268572733105224  0.3164547257484379   T   T   T
  0.0000000000000000  0.7713582302878629  0.4154582117535287   T   T   T
  0.0000000000000000  0.2762299950000013  0.0399299999999982   F   F   F
  0.1666699900000026  0.3155199810000013  0.1330200029999986   F   F   F
  0.0000000000000000  0.3548099940000000  0.2261099870000010   F   F   F
  0.1704659155100443  0.3942543357862479  0.3165646377709638   T   T   T
  0.0000000000000000  0.4377964223418683  0.4160284368163498   T   T   T
  0.3333300099999974  0.9429000140000027  0.0399299999999982   F   F   F
  0.5000000000000000  0.9821900540000001  0.1330200029999986   F   F   F
  0.5000000000000000  0.0609185623371308  0.3164757111376297   T   T   T
  0.3326751286601860  0.1054833542116543  0.4162108706775225   T   T   T
  0.3333300099999974  0.6095700070000021  0.0399299999999982   F   F   F
  0.0000000000000000  0.9429000140000027  0.0399299999999982   F   F   F
  0.8295340574899577  0.3942543357862479  0.3165646377709638   T   T   T
  0.1666699900000026  0.6488599919999984  0.1330200029999986   F   F   F
  0.3333300099999974  0.0214799990000003  0.2261099870000010   F   F   F
  0.0000000000000000  0.6095700070000021  0.0399299999999982   F   F   F
  0.1680463473044767  0.0617464378807394  0.3168959375877373   T   T   T
  0.6666700170000013  0.9429000140000027  0.0399299999999982   F   F   F
  0.5000000000000000  0.3155199810000013  0.1330200029999986   F   F   F
  0.3333300099999974  0.2762299950000013  0.0399299999999982   F   F   F
  0.0000000000000000  0.0214799990000003  0.2261099870000010   F   F   F
  0.6656211056187760  0.4385655006022411  0.4153320178575172   T   T   T
  0.0000000000000000  0.1050334880608691  0.4157536888154448   T   T   T
  0.6666700170000013  0.0214799990000003  0.2261099870000010   F   F   F
  0.8333299829999987  0.9821900540000001  0.1330200029999986   F   F   F
  0.3327999567074557  0.7716426792437966  0.4160017608934014   T   T   T
  0.8319536256955248  0.0617464378807394  0.3168959375877373   T   T   T
  0.6666700170000013  0.6095700070000021  0.0399299999999982   F   F   F
  0.3333300099999974  0.3548099940000000  0.2261099870000010   F   F   F
  0.8333299829999987  0.6488599919999984  0.1330200029999986   F   F   F
  0.8316784263521653  0.7268572733105224  0.3164547257484379   T   T   T
  0.6672000702925426  0.7716426792437966  0.4160017608934014   T   T   T
  0.6666700170000013  0.2762299950000013  0.0399299999999982   F   F   F
  0.8333299829999987  0.3155199810000013  0.1330200029999986   F   F   F
  0.6666700170000013  0.3548099940000000  0.2261099870000010   F   F   F
  0.6673248983398122  0.1054833542116543  0.4162108706775225   T   T   T
  0.5000000000000000  0.7277126214095155  0.3169136110325973   T   T   T
  0.3333300099999974  0.6881400010000007  0.2261099870000010   F   F   F
  0.5000000000000000  0.6488599919999984  0.1330200029999986   F   F   F
  0.1666699900000026  0.9821900540000001  0.1330200029999986   F   F   F
  0.6666700170000013  0.6881400010000007  0.2261099870000010   F   F   F
  0.3343789213812228  0.4385655006022411  0.4153320178575172   T   T   T
  0.7844700450000000  0.6508099880000000  0.6196600140000000   T   T   T
  0.7453100190000000  0.6122600070000000  0.7124900450000000   T   T   T
  0.5188200140000000  0.5316799940000000  0.7368199800000000   T   T   T
  0.3312699950000000  0.4895600100000000  0.6683400320000000   T   T   T
  0.3719900070000000  0.5287200290000000  0.5750999870000000   T   T   T
  0.7241700490000000  0.6675099800000000  0.4889699970000000   T   T   T
  0.6670271896196963  0.3371192497132397  0.4313483174153099   T   T   T
  0.8333299829999987  0.7496400010000031  0.1126499989999985   F   F   F
  0.6666700170000013  0.7889299870000031  0.2057400019999989   F   F   F
  0.8339074223611156  0.4951046268720827  0.2996326073913685   T   T   T
  0.8333299829999987  0.0829700020000033  0.1126499989999985   F   F   F
  0.6666700170000013  0.0436899999999980  0.0195599999999985   F   F   F
  0.6666700170000013  0.7103499620000022  0.0195599999999985   F   F   F
  0.8338610382776591  0.2943795156876782  0.3372610911622620   T   T   T
  0.6666700170000013  0.3770200080000023  0.0195599999999985   F   F   F
  0.8333299829999987  0.2147399990000025  0.1533800070000026   F   F   F
  0.6666700170000013  0.1754499999999979  0.0602899989999983   F   F   F
  0.6662362269664222  0.5400688044832619  0.3971522666647163   T   T   T
  0.6666700170000013  0.4555900029999975  0.2057400019999989   F   F   F
  0.8332668170626650  0.8287081025573456  0.2997968714990901   T   T   T
  0.8333299829999987  0.4163100210000010  0.1126499989999985   F   F   F
  0.5000000000000000  0.4163100210000010  0.1126499989999985   F   F   F
  0.6666700170000013  0.2540200079999977  0.2464700100000030   F   F   F
  0.3333300099999974  0.4555900029999975  0.2057400019999989   F   F   F
  0.8332613123907588  0.9609706123804201  0.3370396799480926   T   T   T
  0.3337638000335763  0.5400688044832619  0.3971522666647163   T   T   T
  0.6684859774624030  0.2068948234810914  0.3975615447287733   T   T   T
  0.3328694964989227  0.6695352703367736  0.4321381285471771   T   T   T
  0.6666991452294201  0.0027856332955722  0.4318309098598800   T   T   T
  0.6666700170000013  0.9206899460000031  0.2464700100000030   F   F   F
  0.8333299829999987  0.8814000149999970  0.1533800070000026   F   F   F
  0.6666700170000013  0.8421200049999982  0.0602899989999983   F   F   F
  0.3315140495375961  0.2068948234810914  0.3975615447287733   T   T   T
  0.5000000000000000  0.4954741427331695  0.2992646683381472   T   T   T
  0.5000000000000000  0.1612392196010418  0.2990633420608652   T   T   T
  0.5000000000000000  0.0829700020000033  0.1126499989999985   F   F   F
  0.3333300099999974  0.0436899999999980  0.0195599999999985   F   F   F
  0.3329728373803021  0.3371192497132397  0.4313483174153099   T   T   T
  0.5000000000000000  0.2935719524720357  0.3366352925667883   T   T   T
  0.3333300099999974  0.2540200079999977  0.2464700100000030   F   F   F
  0.5000000000000000  0.2147399990000025  0.1533800070000026   F   F   F
  0.3333300099999974  0.1754499999999979  0.0602899989999983   F   F   F
  0.3333300099999974  0.1222599950000003  0.2057400019999989   F   F   F
  0.6671305305010762  0.6695352703367736  0.4321381285471771   T   T   T
  0.0000000000000000  0.2065222807371546  0.3964587828929090   T   T   T
  0.6666700170000013  0.5873600460000006  0.2464700100000030   F   F   F
  0.1666699900000026  0.2147399990000025  0.1533800070000026   F   F   F
  0.0000000000000000  0.2540200079999977  0.2464700100000030   F   F   F
  0.5000000000000000  0.9606900862262229  0.3371611019363492   T   T   T
  0.5000000000000000  0.5480700069999999  0.1533800070000026   F   F   F
  0.3333300099999974  0.5087800209999997  0.0602899989999983   F   F   F
  0.3332189569442937  0.8733959672365322  0.3963839288761533   T   T   T
  0.5000000000000000  0.8289673539790952  0.2997370861765830   T   T   T
  0.3333300099999974  0.7889299870000031  0.2057400019999989   F   F   F
  0.5000000000000000  0.7496400010000031  0.1126499989999985   F   F   F
  0.3333300099999974  0.7103499620000022  0.0195599999999985   F   F   F
  0.3333008817705786  0.0027856332955722  0.4318309098598800   T   T   T
  0.3333300099999974  0.9206899460000031  0.2464700100000030   F   F   F
  0.1661389347223423  0.2943795156876782  0.3372610911622620   T   T   T
  0.5000000000000000  0.8814000149999970  0.1533800070000026   F   F   F
  0.3333300099999974  0.8421200049999982  0.0602899989999983   F   F   F
  0.7250400400000000  0.6574500240000000  0.5266299750000000   T   T   T
  0.1674976563070967  0.1627745033071380  0.2998731801820306   T   T   T
  0.0000000000000000  0.1222599950000003  0.2057400019999989   F   F   F
  0.1666699900000026  0.0829700020000033  0.1126499989999985   F   F   F
  0.0000000000000000  0.0436899999999980  0.0195599999999985   F   F   F
  0.0000000000000000  0.3355402419662560  0.4322985114266052   T   T   T
  0.6666700170000013  0.1222599950000003  0.2057400019999989   F   F   F
  0.0000000000000000  0.8421200049999982  0.0602899989999983   F   F   F
  0.0000000000000000  0.1754499999999979  0.0602899989999983   F   F   F
  0.8320882013075992  0.6264825664032746  0.3369283290358734   T   T   T
  0.1666699900000026  0.8814000149999970  0.1533800070000026   F   F   F
  0.1667386606092424  0.9609706123804201  0.3370396799480926   T   T   T
  0.8333299829999987  0.5480700069999999  0.1533800070000026   F   F   F
  0.6666700170000013  0.5087800209999997  0.0602899989999983   F   F   F
  0.6667810700557047  0.8733959672365322  0.3963839288761533   T   T   T
  0.3333300099999974  0.3770200080000023  0.0195599999999985   F   F   F
  0.5000000000000000  0.6282721238976360  0.3378504298353914   T   T   T
  0.8325023166929049  0.1627745033071380  0.2998731801820306   T   T   T
  0.3333300099999974  0.5873600460000006  0.2464700100000030   F   F   F
  0.0000000000000000  0.5394477167442392  0.3965755035311815   T   T   T
  0.1660925506388855  0.4951046268720827  0.2996326073913685   T   T   T
  0.0000000000000000  0.4555900029999975  0.2057400019999989   F   F   F
  0.1666699900000026  0.4163100210000010  0.1126499989999985   F   F   F
  0.0000000000000000  0.3770200080000023  0.0195599999999985   F   F   F
  0.0000000000000000  0.6690855808238292  0.4312789982331838   T   T   T
  0.1679117716924017  0.6264825664032746  0.3369283290358734   T   T   T
  0.0000000000000000  0.5873600460000006  0.2464700100000030   F   F   F
  0.1666699900000026  0.5480700069999999  0.1533800070000026   F   F   F
  0.0000000000000000  0.5087800209999997  0.0602899989999983   F   F   F
  0.0000000000000000  0.8733383775941734  0.3962041536387896   T   T   T
  0.1667331559373365  0.8287081025573456  0.2997968714990901   T   T   T
  0.0000000000000000  0.7889299870000031  0.2057400019999989   F   F   F
  0.1666699900000026  0.7496400010000031  0.1126499989999985   F   F   F
  0.0000000000000000  0.7103499620000022  0.0195599999999985   F   F   F
  0.0000000000000000  0.0025863606614420  0.4318807011428460   T   T   T
  0.0000000000000000  0.9206899460000031  0.2464700100000030   F   F   F
  0.5087599990000000  0.5938199620000000  0.5008399910000000   T   T   T
